1 - 1
2 - 2
3 - 343
4 - 2
5 - 19
6 - 3
7 - 1
8 - 17
9 - 1
10 - 4
11 - 13
12 - 6
13 - 14
14 - 1
15 - 1
16 - 151
17 - 35
18 - 2
19 - 116
20 - 1
21 - 6
22 - 2
23 - 1
24 - 1
25 - 3
26 - 49
27 - 4
28 - 1
29 - 4
30 - 74
31 - 121
32 - 1
Average: 31